2419.05 584602
639012 13545.3
91626.4 497059
187033 385396
346934 232882
577209 56515.1
514401 66374.2
16765.7 553148
223637 370394
250932 339948
425844 162104
592989 26947.8
488297 96332.6
467554 118882
586840 39096.9
495060 85675.4
374724 201077
474441 115261
260308 339918
435691 131573
223716 365566
403958 176146
548503 58672.3
189528 376138
233306 353152
143297 461530
433656 142430
158213 417060
66374.2 518594
277837 299053
120513 462221
76157.8 505279
116324 473417
57129.7 527191
391361 185962
326433 274626
265376 335244
272090 316811
286812 274767
13825.2 572056
147122 430361
93395.1 476990
241485 340353
329911 250492
26947.8 534892
365730 226016
97458.8 475259
272915 299509
505204 85271.5
218218 371572
331451 236554
483556 108287
272835 308711
